size = 9;

clue =   [| 0, 0, 0,   0, 0, 0,   0, 0, 0
          | 0, 4, 0,   0, 0, 8,   3, 0, 0

          | 0, 0, 0,   0, 0, 0,   0, 1, 6
          | 7, 0, 0,   0, 9, 0,   2, 0, 0
          | 3, 0, 0,   0, 5, 0,   7, 0, 0
          | 0, 0, 6,   0, 8, 0,   0, 3, 0

          | 9, 0, 0,   0, 0, 2,   8, 0, 0
          | 6, 0, 0,   0, 0, 1,   0, 0, 0
          | 0, 0, 7,   0, 0, 4,   1, 0, 2
          |];

num_cages = 2;
max_cage_cells = 3;

cage_totals = [13, 8];

cages = [| (r:1, c:1), (r:1, c:2), (r:1, c:3)
          | (r:8, c:1), (r:8, c:2), (r:0, c:0)
        |]